min: c;

c = 3.03636024909912 * u2_t7_h3 + 2.77920396669597 * u2_t7_h4 + 4.01087639010308 * u2_t2_h5 + 4.01087639010308 * u2_t3_h5 + 4.01087639010308 * u2_t7_h5 + 3.64308342339925 * u2_t2_h6 + 3.64308342339925 * u2_t3_h6 + 3.64308342339925 * u2_t4_h6 + 3.64308342339925 * u2_t7_h6 + 3.64308342339925 * u2_t10_h6 + 4.24760702324036 * u2_t2_h7 + 4.24760702324036 * u2_t3_h7 + 4.24760702324036 * u2_t4_h7 + 4.24760702324036 * u2_t7_h7 + 4.24760702324036 * u2_t10_h7 + 5.74046879629691 * u2_t2_h8 + 5.74046879629691 * u2_t3_h8 + 5.74046879629691 * u2_t4_h8 + 5.74046879629691 * u2_t7_h8 + 5.74046879629691 * u2_t10_h8 + 5.21490126052062 * u2_t2_h9 + 5.21490126052062 * u2_t3_h9 + 5.21490126052062 * u2_t4_h9 + 5.21490126052062 * u2_t7_h9 + 5.21490126052062 * u2_t10_h9 + 5.67102162017065 * u2_t2_h10 + 5.67102162017065 * u2_t3_h10 + 5.67102162017065 * u2_t4_h10 + 5.67102162017065 * u2_t7_h10 + 5.67102162017065 * u2_t10_h10 + 3.91576518730634 * u2_t1_h11 + 3.91576518730634 * u2_t2_h11 + 3.91576518730634 * u2_t3_h11 + 3.91576518730634 * u2_t4_h11 + 3.91576518730634 * u2_t7_h11 + 3.91576518730634 * u2_t10_h11 + 6.3951482641867 * u2_t1_h12 + 6.3951482641867 * u2_t3_h12 + 6.3951482641867 * u2_t4_h12 + 6.3951482641867 * u2_t7_h12 + 4.68897098556618 * u2_t1_h13 + 4.68897098556618 * u2_t3_h13 + 4.68897098556618 * u2_t4_h13 + 4.68897098556618 * u2_t7_h13 + 4.68897098556618 * u2_t9_h13 + 4.9308049258183 * u2_t1_h14 + 4.9308049258183 * u2_t3_h14 + 4.9308049258183 * u2_t4_h14 + 4.9308049258183 * u2_t7_h14 + 4.9308049258183 * u2_t9_h14 + 5.96338711752127 * u2_t1_h15 + 5.96338711752127 * u2_t3_h15 + 5.96338711752127 * u2_t4_h15 + 5.96338711752127 * u2_t7_h15 + 5.96338711752127 * u2_t9_h15 + 5.56828418939799 * u2_t1_h16 + 5.56828418939799 * u2_t3_h16 + 5.56828418939799 * u2_t4_h16 + 5.56828418939799 * u2_t7_h16 + 5.56828418939799 * u2_t9_h16 + 6.56066347480759 * u2_t1_h17 + 6.56066347480759 * u2_t3_h17 + 6.56066347480759 * u2_t4_h17 + 6.56066347480759 * u2_t7_h17 + 6.56066347480759 * u2_t9_h17 + 6.53102770834909 * u2_t1_h18 + 6.53102770834909 * u2_t3_h18 + 6.53102770834909 * u2_t4_h18 + 6.53102770834909 * u2_t6_h18 + 6.53102770834909 * u2_t7_h18 + 5.77601348971926 * u2_t1_h19 + 5.77601348971926 * u2_t3_h19 + 5.77601348971926 * u2_t4_h19 + 5.77601348971926 * u2_t5_h19 + 5.77601348971926 * u2_t6_h19 + 5.77601348971926 * u2_t7_h19 + 5.65149615978597 * u2_t1_h20 + 5.65149615978597 * u2_t3_h20 + 5.65149615978597 * u2_t4_h20 + 5.65149615978597 * u2_t6_h20 + 5.65149615978597 * u2_t7_h20 + 5.35639013412676 * u2_t1_h21 + 5.35639013412676 * u2_t3_h21 + 5.35639013412676 * u2_t6_h21 + 5.35639013412676 * u2_t7_h21 + 5.35639013412676 * u2_t8_h21 + 5.23297024203777 * u2_t1_h22 + 5.23297024203777 * u2_t3_h22 + 5.23297024203777 * u2_t7_h22 + 5.23297024203777 * u2_t8_h22 + 5.65769021795724 * u2_t3_h23 + 5.65769021795724 * u2_t7_h23 + 5.65769021795724 * u2_t8_h23;
0 <= u2_t1_h11 <= 1;
0 <= u2_t1_h12 <= 1;
0 <= u2_t1_h13 <= 1;
0 <= u2_t1_h14 <= 1;
0 <= u2_t1_h15 <= 1;
0 <= u2_t1_h16 <= 1;
0 <= u2_t1_h17 <= 1;
0 <= u2_t1_h18 <= 1;
0 <= u2_t1_h19 <= 1;
0 <= u2_t1_h20 <= 1;
0 <= u2_t1_h21 <= 1;
0 <= u2_t1_h22 <= 1;
u2_t1_h11 + u2_t1_h12 + u2_t1_h13 + u2_t1_h14 + u2_t1_h15 + u2_t1_h16 + u2_t1_h17 + u2_t1_h18 + u2_t1_h19 + u2_t1_h20 + u2_t1_h21 + u2_t1_h22 = 2;
0 <= u2_t2_h5 <= 1;
0 <= u2_t2_h6 <= 1;
0 <= u2_t2_h7 <= 1;
0 <= u2_t2_h8 <= 1;
0 <= u2_t2_h9 <= 1;
0 <= u2_t2_h10 <= 1;
0 <= u2_t2_h11 <= 1;
u2_t2_h5 + u2_t2_h6 + u2_t2_h7 + u2_t2_h8 + u2_t2_h9 + u2_t2_h10 + u2_t2_h11 = 2;
0 <= u2_t3_h5 <= 1;
0 <= u2_t3_h6 <= 1;
0 <= u2_t3_h7 <= 1;
0 <= u2_t3_h8 <= 1;
0 <= u2_t3_h9 <= 1;
0 <= u2_t3_h10 <= 1;
0 <= u2_t3_h11 <= 1;
0 <= u2_t3_h12 <= 1;
0 <= u2_t3_h13 <= 1;
0 <= u2_t3_h14 <= 1;
0 <= u2_t3_h15 <= 1;
0 <= u2_t3_h16 <= 1;
0 <= u2_t3_h17 <= 1;
0 <= u2_t3_h18 <= 1;
0 <= u2_t3_h19 <= 1;
0 <= u2_t3_h20 <= 1;
0 <= u2_t3_h21 <= 1;
0 <= u2_t3_h22 <= 1;
0 <= u2_t3_h23 <= 1;
u2_t3_h5 + u2_t3_h6 + u2_t3_h7 + u2_t3_h8 + u2_t3_h9 + u2_t3_h10 + u2_t3_h11 + u2_t3_h12 + u2_t3_h13 + u2_t3_h14 + u2_t3_h15 + u2_t3_h16 + u2_t3_h17 + u2_t3_h18 + u2_t3_h19 + u2_t3_h20 + u2_t3_h21 + u2_t3_h22 + u2_t3_h23 = 1;
0 <= u2_t4_h6 <= 1;
0 <= u2_t4_h7 <= 1;
0 <= u2_t4_h8 <= 1;
0 <= u2_t4_h9 <= 1;
0 <= u2_t4_h10 <= 1;
0 <= u2_t4_h11 <= 1;
0 <= u2_t4_h12 <= 1;
0 <= u2_t4_h13 <= 1;
0 <= u2_t4_h14 <= 1;
0 <= u2_t4_h15 <= 1;
0 <= u2_t4_h16 <= 1;
0 <= u2_t4_h17 <= 1;
0 <= u2_t4_h18 <= 1;
0 <= u2_t4_h19 <= 1;
0 <= u2_t4_h20 <= 1;
u2_t4_h6 + u2_t4_h7 + u2_t4_h8 + u2_t4_h9 + u2_t4_h10 + u2_t4_h11 + u2_t4_h12 + u2_t4_h13 + u2_t4_h14 + u2_t4_h15 + u2_t4_h16 + u2_t4_h17 + u2_t4_h18 + u2_t4_h19 + u2_t4_h20 = 3;
0 <= u2_t5_h19 <= 1;
u2_t5_h19 = 1;
0 <= u2_t6_h18 <= 1;
0 <= u2_t6_h19 <= 1;
0 <= u2_t6_h20 <= 1;
0 <= u2_t6_h21 <= 1;
u2_t6_h18 + u2_t6_h19 + u2_t6_h20 + u2_t6_h21 = 2;
0 <= u2_t7_h3 <= 1;
0 <= u2_t7_h4 <= 1;
0 <= u2_t7_h5 <= 1;
0 <= u2_t7_h6 <= 1;
0 <= u2_t7_h7 <= 1;
0 <= u2_t7_h8 <= 1;
0 <= u2_t7_h9 <= 1;
0 <= u2_t7_h10 <= 1;
0 <= u2_t7_h11 <= 1;
0 <= u2_t7_h12 <= 1;
0 <= u2_t7_h13 <= 1;
0 <= u2_t7_h14 <= 1;
0 <= u2_t7_h15 <= 1;
0 <= u2_t7_h16 <= 1;
0 <= u2_t7_h17 <= 1;
0 <= u2_t7_h18 <= 1;
0 <= u2_t7_h19 <= 1;
0 <= u2_t7_h20 <= 1;
0 <= u2_t7_h21 <= 1;
0 <= u2_t7_h22 <= 1;
0 <= u2_t7_h23 <= 1;
u2_t7_h3 + u2_t7_h4 + u2_t7_h5 + u2_t7_h6 + u2_t7_h7 + u2_t7_h8 + u2_t7_h9 + u2_t7_h10 + u2_t7_h11 + u2_t7_h12 + u2_t7_h13 + u2_t7_h14 + u2_t7_h15 + u2_t7_h16 + u2_t7_h17 + u2_t7_h18 + u2_t7_h19 + u2_t7_h20 + u2_t7_h21 + u2_t7_h22 + u2_t7_h23 = 3;
0 <= u2_t8_h21 <= 1;
0 <= u2_t8_h22 <= 1;
0 <= u2_t8_h23 <= 1;
u2_t8_h21 + u2_t8_h22 + u2_t8_h23 = 2;
0 <= u2_t9_h13 <= 1;
0 <= u2_t9_h14 <= 1;
0 <= u2_t9_h15 <= 1;
0 <= u2_t9_h16 <= 1;
0 <= u2_t9_h17 <= 1;
u2_t9_h13 + u2_t9_h14 + u2_t9_h15 + u2_t9_h16 + u2_t9_h17 = 1;
0 <= u2_t10_h6 <= 1;
0 <= u2_t10_h7 <= 1;
0 <= u2_t10_h8 <= 1;
0 <= u2_t10_h9 <= 1;
0 <= u2_t10_h10 <= 1;
0 <= u2_t10_h11 <= 1;
u2_t10_h6 + u2_t10_h7 + u2_t10_h8 + u2_t10_h9 + u2_t10_h10 + u2_t10_h11 = 2;
